50
    1    21    18
    2    16    19
    3     4     5
    4    22    26
    5    10    15
    6    15    14
    7    31    28
    8    20    18
    9    11    10
   10    19    21
   11    11    10
   12     7     8
   13     1     3
   14    24    21
   15    17    17
   16    39    41
   17    24    22
   18     5     7
   19    21    24
   20    46    49
   21    16    14
   22    28    28
   23    44    47
   24     3     7
   25    16    19
   26    12     7
   27     2     1
   28    30    26
   29    15    10
   30    51    46
   31    30    30
   32    43    42
   33    41    46
   34    11     8
   35     7     3
   36    23    26
   37     1     5
   38    42    47
   39    28    29
   40    45    47
   41     4     2
   42    18    20
   43    12    15
   44    16    12
   45    32    32
   46     5     3
   47    43    40
   48    24    22
   49    45    50
   50    24    23
541
